0000000000000000
0000000000000000
0011111111000000
0011111111000000
0000001111100000
0000001111100000
0000000111100000
0000000111100000
0000000111100000
0000011111100000
0000110001100000
0001100001100000
0011100001110000
0011000001110000
0111100011110000
0000000000000000
